p cnf 50 80
-28 37 -5 0
30 43 15 0
10 43 -48 0
40 -10 28 0
-28 -12 25 0
-38 -32 -49 0
43 -35 -37 0
35 42 31 0
44 11 32 0
-34 -18 31 0
3 -13 37 0
22 -23 1 0
-12 -38 -42 0
-49 14 -23 0
15 -12 42 0
-31 34 -4 0
-38 48 -19 0
10 38 -39 0
-44 39 -31 0
15 -5 -42 0
28 -12 -32 0
38 -1 -41 0
-27 -6 -35 0
-47 -46 7 0
-34 -41 -25 0
2 15 -10 0
40 43 8 0
13 -43 -31 0
13 41 -9 0
-16 -20 -31 0
-7 -32 27 0
-27 26 17 0
4 -5 -22 0
15 25 -11 0
21 -39 -28 0
20 9 5 0
-44 -23 -25 0
6 41 -39 0
-26 50 -42 0
7 36 38 0
-9 49 13 0
38 -48 -37 0
-1 -5 17 0
9 17 -19 0
-43 -34 18 0
-45 21 4 0
-41 -26 -38 0
16 -3 49 0
-41 18 46 0
40 43 -46 0
x -1 4 -5 -7 9 -10 -12 -15 17 19 20 22 -26 28 29 30 32 -33 -34 -35 -36 -37 -38 -39 41 42 -44 -47 50 0
x -1 3 -4 5 6 -7 8 9 -11 12 -13 -22 23 -24 27 -28 29 -30 32 -33 34 -36 39 -40 -41 42 43 -47 -49 0
x 1 -2 4 5 9 10 11 12 13 14 15 -20 21 22 -23 -24 25 -26 -29 -30 -33 -34 -36 -37 38 -39 42 45 47 -48 49 50 0
x 1 2 5 -6 7 -8 -11 -12 15 16 18 -19 20 21 -22 -23 24 25 -26 28 -29 -32 -35 36 -39 -41 -44 47 -48 0
x -1 5 -10 11 12 -15 -16 18 21 23 25 26 -27 29 -30 -31 -33 34 36 -37 39 40 -41 43 44 46 47 48 49 -50 0
x 1 -4 6 -8 9 10 -11 -12 14 -16 -20 23 -24 27 30 36 -37 38 -40 41 -42 47 0
x -5 7 8 -10 -13 -17 -18 21 -22 -26 30 33 34 36 -37 -38 -42 -43 -45 -47 0
x -1 4 -8 -9 -12 15 -16 -17 -18 -24 25 -27 28 -30 31 -32 -38 -39 41 42 46 -47 -49 0
x -1 -2 3 4 6 10 11 12 16 -21 -22 -23 26 27 31 32 33 -34 -35 -36 37 -40 -44 -45 -46 0
x -1 -3 4 -5 8 9 12 13 -15 -16 19 -21 22 23 -25 26 28 -30 32 -34 36 -37 38 41 43 -44 -49 0
x 1 2 4 -6 -9 11 -12 14 -16 18 19 -24 25 27 28 -29 -31 -32 -33 35 -36 37 38 -39 41 46 -47 50 0
x -1 4 5 -9 -10 15 16 17 19 21 -22 -24 -25 27 30 33 34 35 36 -37 -40 -42 48 -50 0
x 3 -5 -6 -9 -10 13 17 18 -19 -20 22 -24 -26 -27 28 30 -31 -33 -35 36 -37 -38 40 41 42 43 -46 48 -50 0
x 1 3 5 -8 12 -15 -16 17 -22 -23 -24 26 28 29 30 -32 -34 36 38 39 -42 49 50 0
x -1 5 -6 -8 9 10 12 -13 -14 15 -16 -20 -24 25 -28 -29 31 34 35 -36 -37 -39 40 41 42 -46 -47 49 -50 0
x -1 9 10 -11 -12 -13 -14 -15 -16 19 20 24 25 -27 28 -29 32 34 -35 -39 -40 -41 -43 44 -45 47 48 49 50 0
x 2 4 -5 -6 9 12 -13 -14 -20 21 22 -24 -27 28 -31 32 -36 40 -43 -47 -48 50 0
x 3 4 12 -14 15 18 19 20 -21 22 23 -24 -25 -26 -31 -32 33 35 -36 37 -38 -43 -45 46 -47 -48 49 0
x 2 4 7 9 -11 14 -15 -18 -20 -21 23 26 -29 -32 34 -35 36 37 42 44 -46 -48 -49 50 0
x 3 -4 6 -10 13 -15 -16 18 21 23 25 26 28 -30 -31 -33 35 -37 -39 -40 41 -42 44 -46 -50 0
x -1 2 -3 5 8 -9 -10 12 16 21 22 23 -24 26 27 32 33 36 -38 -42 -44 -47 -48 49 50 0
x -1 -2 6 -8 12 -13 -14 -15 16 21 22 24 -26 30 -31 33 -34 35 38 -39 -42 43 -46 -47 -48 -49 0
x 1 -4 -5 -6 -7 -8 9 -11 -12 -13 -14 15 -18 -19 -20 -22 25 -28 -29 -30 31 -32 -34 -37 39 -41 -42 -44 46 47 -49 -50 0
x 3 5 -14 18 -19 -20 23 24 27 -28 31 -32 -33 -37 -38 -39 -43 -44 48 0
x 2 -6 12 17 18 19 20 22 -23 -25 27 -28 29 -31 32 -34 -37 39 41 -42 -43 -45 -47 -48 -49 50 0
x -1 -2 -7 -12 13 -14 16 -18 19 -22 23 -24 -26 -29 32 -34 35 -36 -38 -42 -43 44 -45 47 -49 0
x -5 -6 -9 11 12 19 -20 -22 -23 -25 -27 29 30 -31 32 33 -34 -41 -42 43 -49 0
x -1 3 6 -7 9 10 -12 -14 15 16 17 18 19 -20 21 -24 -25 26 28 -31 -33 -34 -35 40 41 44 -46 47 -48 0
x -3 4 -5 10 -11 16 17 18 -19 20 -23 26 -27 28 -30 -32 -36 37 40 -42 -44 -47 -49 0
x 3 4 -5 -6 -8 9 11 12 -13 -14 -15 17 -20 -21 -22 24 27 28 -29 -30 34 35 36 -37 -38 42 -44 -45 -46 -48 50 0
